/*********************************************
 * OPL 22.1.2.0 Data
 * Author: HongAn
 * Creation Date: Apr 21, 2026 at 9:07:35 AM
 *********************************************/

m = 5; // number of A
M = 1000;

v = [10,8,6,7,5];

l = [4,3,2,5,3]; // item dimension
w = [3,2,2,4,2];
h = [2,2,1,3,2];

L = 10;
W = 10;
H = 10;

X0 = 0;
Y0 = 0;
Z0 = 0;

